Geographic Exponential Decay
40 159 253 244 68 215 178 66 165 86 170 181 14 269 107 196 219 187 146 59 113 310 105 175 43 166 150 276 134 20 157 132 108 305 145 44 239 62 5 35 100
p edge 320 328
e 0 139 17.0
e 0 266 18.0
e 1 203 34.0
e 1 158 19.0
e 1 256 23.0
e 1 0 24.0
e 2 100 69.0
e 2 1 31.0
e 3 192 10.0
e 3 2 3.0
e 4 244 22.0
e 5 245 61.0
e 5 140 8.0
e 5 191 19.0
e 5 15 28.0
e 5 133 86.0
e 5 3 51.0
e 6 231 1.0
e 6 5 36.0
e 7 131 5.0
e 7 6 9.0
e 8 141 1.0
e 8 7 6.0
e 9 150 64.0
e 10 85 3.0
e 10 8 4.0
e 11 264 5.0
e 11 10 10.0
e 12 155 1.0
e 12 11 10.0
e 13 289 4.0
e 13 12 1.0
e 14 50 3.0
e 14 182 67.0
e 14 98 71.0
e 14 243 87.0
e 14 294 30.0
e 16 130 2.0
e 16 13 2.0
e 17 303 1.0
e 17 16 3.0
e 18 126 4.0
e 18 17 6.0
e 19 280 6.0
e 19 18 5.0
e 20 281 59.0
e 20 81 86.0
e 20 27 100.0
e 20 299 25.0
e 20 196 99.0
e 21 272 8.0
e 21 19 1.0
e 22 23 5.0
e 22 21 1.0
e 24 194 10.0
e 24 22 2.0
e 25 224 1.0
e 25 24 2.0
e 26 255 5.0
e 26 25 3.0
e 28 175 11.0
e 29 208 1.0
e 29 26 2.0
e 30 254 1.0
e 30 29 3.0
e 31 99 1.0
e 31 30 5.0
e 32 59 15.0
e 32 31 4.0
e 33 268 3.0
e 33 32 3.0
e 34 138 2.0
e 34 33 2.0
e 35 104 64.0
e 35 188 26.0
e 35 36 44.0
e 35 230 17.0
e 35 142 57.0
e 35 34 63.0
e 37 189 1.0
e 37 35 46.0
e 38 128 4.0
e 38 37 1.0
e 39 65 5.0
e 39 38 10.0
e 40 148 1.0
e 40 39 1.0
e 41 57 1.0
e 41 40 1.0
e 42 82 11.0
e 42 43 1.0
e 42 41 1.0
e 43 46 16.0
e 43 47 19.0
e 43 120 58.0
e 43 237 65.0
e 44 168 95.0
e 44 66 51.0
e 44 244 59.0
e 44 193 41.0
e 44 176 66.0
e 45 261 3.0
e 45 42 4.0
e 47 49 25.0
e 47 124 6.0
e 48 173 19.0
e 51 113 24.0
e 52 190 1.0
e 52 45 2.0
e 53 175 2.0
e 54 127 40.0
e 54 52 5.0
e 55 318 2.0
e 55 54 1.0
e 56 214 5.0
e 56 55 1.0
e 58 199 2.0
e 58 56 1.0
e 59 201 47.0
e 59 202 32.0
e 59 229 78.0
e 59 238 98.0
e 60 269 58.0
e 60 58 1.0
e 61 179 1.0
e 61 60 5.0
e 62 204 55.0
e 62 241 84.0
e 62 63 96.0
e 62 123 99.0
e 62 205 6.0
e 64 288 1.0
e 64 61 5.0
e 66 67 51.0
e 66 205 1.0
e 66 165 67.0
e 66 68 46.0
e 68 317 60.0
e 68 94 60.0
e 68 134 23.0
e 68 258 83.0
e 69 70 3.0
e 69 64 4.0
e 71 73 2.0
e 71 69 3.0
e 72 74 8.0
e 72 71 7.0
e 75 105 2.0
e 75 72 10.0
e 76 206 2.0
e 76 75 2.0
e 77 316 2.0
e 77 76 1.0
e 78 239 76.0
e 78 79 3.0
e 80 214 7.0
e 83 84 1.0
e 83 77 2.0
e 86 87 54.0
e 86 88 98.0
e 86 143 29.0
e 86 144 25.0
e 86 232 55.0
e 86 83 63.0
e 87 240 1.0
e 89 90 2.0
e 89 86 14.0
e 91 305 21.0
e 92 178 10.0
e 93 257 2.0
e 93 89 1.0
e 95 105 92.0
e 96 195 2.0
e 96 93 1.0
e 97 233 1.0
e 97 96 5.0
e 100 101 49.0
e 100 196 100.0
e 100 102 91.0
e 100 174 68.0
e 103 259 1.0
e 103 97 1.0
e 105 135 15.0
e 105 291 8.0
e 105 119 41.0
e 106 234 1.0
e 106 103 5.0
e 107 108 36.0
e 107 300 19.0
e 107 287 42.0
e 107 198 72.0
e 107 205 99.0
e 108 109 59.0
e 108 235 98.0
e 108 196 97.0
e 108 112 8.0
e 109 217 16.0
e 110 187 32.0
e 111 236 2.0
e 111 106 1.0
e 112 113 77.0
e 113 218 21.0
e 113 319 55.0
e 113 187 35.0
e 114 200 13.0
e 115 267 20.0
e 115 116 7.0
e 115 111 14.0
e 117 196 86.0
e 118 121 2.0
e 118 115 3.0
e 122 125 1.0
e 125 127 8.0
e 127 129 9.0
e 132 145 92.0
e 132 305 45.0
e 132 253 9.0
e 132 282 6.0
e 132 134 65.0
e 134 292 7.0
e 134 136 59.0
e 134 145 51.0
e 137 180 19.0
e 137 207 8.0
e 137 118 17.0
e 145 146 84.0
e 145 147 5.0
e 145 149 90.0
e 146 150 45.0
e 146 196 51.0
e 146 151 1.0
e 146 152 74.0
e 150 161 89.0
e 150 153 4.0
e 150 213 44.0
e 154 312 3.0
e 154 137 6.0
e 156 276 31.0
e 156 154 1.0
e 157 159 10.0
e 157 160 91.0
e 157 297 69.0
e 157 162 32.0
e 157 163 71.0
e 159 169 69.0
e 159 164 88.0
e 159 165 22.0
e 159 166 15.0
e 165 166 4.0
e 165 183 78.0
e 165 167 1.0
e 166 170 35.0
e 166 171 19.0
e 166 172 22.0
e 170 265 80.0
e 170 173 68.0
e 170 175 67.0
e 170 177 79.0
e 175 306 39.0
e 175 242 89.0
e 178 181 40.0
e 178 239 8.0
e 178 197 2.0
e 178 182 60.0
e 181 184 29.0
e 181 302 8.0
e 181 185 72.0
e 181 239 12.0
e 186 298 4.0
e 186 156 1.0
e 187 198 33.0
e 187 250 84.0
e 187 200 86.0
e 209 210 4.0
e 209 186 1.0
e 211 212 1.0
e 211 209 1.0
e 213 283 24.0
e 213 215 36.0
e 215 216 26.0
e 215 219 13.0
e 215 220 46.0
e 215 278 48.0
e 219 221 59.0
e 219 222 84.0
e 219 253 31.0
e 219 223 4.0
e 225 226 7.0
e 225 211 1.0
e 227 228 1.0
e 227 225 6.0
e 239 242 53.0
e 239 244 79.0
e 244 284 5.0
e 244 246 51.0
e 247 248 9.0
e 247 227 3.0
e 249 304 4.0
e 249 247 9.0
e 251 252 4.0
e 251 249 2.0
e 253 260 7.0
e 253 262 3.0
e 253 300 19.0
e 260 263 24.0
e 269 270 75.0
e 269 271 4.0
e 269 273 19.0
e 269 274 1.0
e 275 276 81.0
e 276 277 76.0
e 276 279 69.0
e 276 285 24.0
e 286 290 4.0
e 286 251 1.0
e 293 295 1.0
e 293 286 2.0
e 296 314 3.0
e 296 293 1.0
e 297 300 13.0
e 301 305 91.0
e 305 307 92.0
e 305 308 67.0
e 309 310 75.0
e 309 296 6.0
e 310 311 11.0
e 310 313 1.0
e 310 315 71.0
